Route #1: 53 2 22 57 38 87 37 98 14 45 17 91 5 18 
Route #2: 7 88 99 93 59 85 61 44 96 60 6 89 
Route #3: 28 26 75 13 4 25 55 23 41 73 74 72 21 
Route #4: 42 54 34 71 30 20 62 47 49 84 8 46 83 
Route #5: 69 76 77 1 70 52 48 36 63 35 65 90 10 27 
Route #6: 56 67 39 15 43 100 16 86 58 
Route #7: 3 50 33 81 66 32 11 64 19 82 31 
Route #8: 97 94 92 95 40 12 78 79 9 51 80 24 29 68 
cost 1532.33
execution_time 32.415
